% Generated by MiniZinc 2.9.3
% Solver library: /home/void/Workspace-Research/Code/fzn-minicpp/minizinc
% Command line invocation: minizinc --solver org.minicpp.ml --compile --no-output-ozn rcpsp-sat.mzn dzn/J60_4_9.dzn -D makespan=75 -o fzn-sat/J60_4_9.fzn 

predicate int_lin_le_imp(array [int] of int: as,array [int] of var int: bs,int: c,var bool: r);
predicate minicpp_cumulative(array [int] of var int: s,array [int] of var int: d,array [int] of var int: r,var int: b);
array [1..2] of int: X_INTRODUCED_78_ = [1,-1];
array [1..14] of int: X_INTRODUCED_140_ = [10,8,5,8,10,3,7,1,2,2,4,2,8,1];
array [1..14] of int: X_INTRODUCED_141_ = [9,4,1,3,3,5,1,7,5,6,4,4,6,5];
array [1..16] of int: X_INTRODUCED_143_ = [3,10,10,10,3,8,5,10,4,3,6,10,4,10,7,9];
array [1..16] of int: X_INTRODUCED_144_ = [5,5,1,9,6,9,3,2,4,6,3,8,9,8,5,2];
array [1..16] of int: X_INTRODUCED_146_ = [1,4,3,8,2,10,6,5,9,3,6,10,7,3,10,6];
array [1..16] of int: X_INTRODUCED_147_ = [7,1,2,8,4,5,7,10,1,6,6,10,7,5,4,8];
array [1..14] of int: X_INTRODUCED_149_ = [4,3,4,6,3,4,5,3,8,8,7,5,6,9];
array [1..14] of int: X_INTRODUCED_150_ = [7,9,5,10,8,8,2,6,1,10,6,8,5,8];
var 0..331: X_INTRODUCED_16_;
var 0..331: X_INTRODUCED_17_;
var 0..331: X_INTRODUCED_18_;
var 0..331: X_INTRODUCED_19_;
var 0..331: X_INTRODUCED_20_;
var 0..331: X_INTRODUCED_21_;
var 0..331: X_INTRODUCED_22_;
var 0..331: X_INTRODUCED_23_;
var 0..331: X_INTRODUCED_24_;
var 0..331: X_INTRODUCED_25_;
var 0..331: X_INTRODUCED_26_;
var 0..331: X_INTRODUCED_27_;
var 0..331: X_INTRODUCED_28_;
var 0..331: X_INTRODUCED_29_;
var 0..331: X_INTRODUCED_30_;
var 0..331: X_INTRODUCED_31_;
var 0..331: X_INTRODUCED_32_;
var 0..331: X_INTRODUCED_33_;
var 0..331: X_INTRODUCED_34_;
var 0..331: X_INTRODUCED_35_;
var 0..331: X_INTRODUCED_36_;
var 0..331: X_INTRODUCED_37_;
var 0..331: X_INTRODUCED_38_;
var 0..331: X_INTRODUCED_39_;
var 0..331: X_INTRODUCED_40_;
var 0..331: X_INTRODUCED_41_;
var 0..331: X_INTRODUCED_42_;
var 0..331: X_INTRODUCED_43_;
var 0..331: X_INTRODUCED_44_;
var 0..331: X_INTRODUCED_45_;
var 0..331: X_INTRODUCED_46_;
var 0..331: X_INTRODUCED_47_;
var 0..331: X_INTRODUCED_48_;
var 0..331: X_INTRODUCED_49_;
var 0..331: X_INTRODUCED_50_;
var 0..331: X_INTRODUCED_51_;
var 0..331: X_INTRODUCED_52_;
var 0..331: X_INTRODUCED_53_;
var 0..331: X_INTRODUCED_54_;
var 0..331: X_INTRODUCED_55_;
var 0..331: X_INTRODUCED_56_;
var 0..331: X_INTRODUCED_57_;
var 0..331: X_INTRODUCED_58_;
var 0..331: X_INTRODUCED_59_;
var 0..331: X_INTRODUCED_60_;
var 0..331: X_INTRODUCED_61_;
var 0..331: X_INTRODUCED_62_;
var 0..331: X_INTRODUCED_63_;
var 0..331: X_INTRODUCED_64_;
var 0..331: X_INTRODUCED_65_;
var 0..331: X_INTRODUCED_66_;
var 0..331: X_INTRODUCED_67_;
var 0..331: X_INTRODUCED_68_;
var 0..331: X_INTRODUCED_69_;
var 0..331: X_INTRODUCED_70_;
var 0..331: X_INTRODUCED_71_;
var 0..331: X_INTRODUCED_72_;
var 0..67: X_INTRODUCED_73_;
var 0..70: X_INTRODUCED_74_;
var 0..67: X_INTRODUCED_75_;
var bool: X_INTRODUCED_135_ ::var_is_introduced :: is_defined_var;
var bool: X_INTRODUCED_137_ ::var_is_introduced :: is_defined_var;
var bool: X_INTRODUCED_138_ ::var_is_introduced :: is_defined_var;
var bool: X_INTRODUCED_139_ ::var_is_introduced :: is_defined_var;
array [1..60] of var int: s:: output_array([1..60]) = [X_INTRODUCED_16_,X_INTRODUCED_17_,X_INTRODUCED_18_,X_INTRODUCED_19_,X_INTRODUCED_20_,X_INTRODUCED_21_,X_INTRODUCED_22_,X_INTRODUCED_23_,X_INTRODUCED_24_,X_INTRODUCED_25_,X_INTRODUCED_26_,X_INTRODUCED_27_,X_INTRODUCED_28_,X_INTRODUCED_29_,X_INTRODUCED_30_,X_INTRODUCED_31_,X_INTRODUCED_32_,X_INTRODUCED_33_,X_INTRODUCED_34_,X_INTRODUCED_35_,X_INTRODUCED_36_,X_INTRODUCED_37_,X_INTRODUCED_38_,X_INTRODUCED_39_,X_INTRODUCED_40_,X_INTRODUCED_41_,X_INTRODUCED_42_,X_INTRODUCED_43_,X_INTRODUCED_44_,X_INTRODUCED_45_,X_INTRODUCED_46_,X_INTRODUCED_47_,X_INTRODUCED_48_,X_INTRODUCED_49_,X_INTRODUCED_50_,X_INTRODUCED_51_,X_INTRODUCED_52_,X_INTRODUCED_53_,X_INTRODUCED_54_,X_INTRODUCED_55_,X_INTRODUCED_56_,X_INTRODUCED_57_,X_INTRODUCED_58_,X_INTRODUCED_59_,X_INTRODUCED_60_,X_INTRODUCED_61_,X_INTRODUCED_62_,X_INTRODUCED_63_,X_INTRODUCED_64_,X_INTRODUCED_65_,X_INTRODUCED_66_,X_INTRODUCED_67_,X_INTRODUCED_68_,X_INTRODUCED_69_,X_INTRODUCED_70_,X_INTRODUCED_71_,X_INTRODUCED_72_,X_INTRODUCED_73_,X_INTRODUCED_74_,X_INTRODUCED_75_];
array [1..14] of var int: X_INTRODUCED_142_ ::var_is_introduced  = [X_INTRODUCED_16_,X_INTRODUCED_22_,X_INTRODUCED_25_,X_INTRODUCED_27_,X_INTRODUCED_30_,X_INTRODUCED_37_,X_INTRODUCED_41_,X_INTRODUCED_49_,X_INTRODUCED_50_,X_INTRODUCED_56_,X_INTRODUCED_66_,X_INTRODUCED_69_,X_INTRODUCED_71_,X_INTRODUCED_74_];
array [1..16] of var int: X_INTRODUCED_145_ ::var_is_introduced  = [X_INTRODUCED_23_,X_INTRODUCED_28_,X_INTRODUCED_29_,X_INTRODUCED_32_,X_INTRODUCED_34_,X_INTRODUCED_35_,X_INTRODUCED_36_,X_INTRODUCED_39_,X_INTRODUCED_42_,X_INTRODUCED_43_,X_INTRODUCED_48_,X_INTRODUCED_52_,X_INTRODUCED_53_,X_INTRODUCED_54_,X_INTRODUCED_60_,X_INTRODUCED_65_];
array [1..16] of var int: X_INTRODUCED_148_ ::var_is_introduced  = [X_INTRODUCED_17_,X_INTRODUCED_18_,X_INTRODUCED_20_,X_INTRODUCED_21_,X_INTRODUCED_24_,X_INTRODUCED_26_,X_INTRODUCED_40_,X_INTRODUCED_44_,X_INTRODUCED_57_,X_INTRODUCED_59_,X_INTRODUCED_62_,X_INTRODUCED_64_,X_INTRODUCED_68_,X_INTRODUCED_70_,X_INTRODUCED_72_,X_INTRODUCED_73_];
array [1..14] of var int: X_INTRODUCED_151_ ::var_is_introduced  = [X_INTRODUCED_19_,X_INTRODUCED_31_,X_INTRODUCED_33_,X_INTRODUCED_38_,X_INTRODUCED_45_,X_INTRODUCED_46_,X_INTRODUCED_47_,X_INTRODUCED_51_,X_INTRODUCED_55_,X_INTRODUCED_58_,X_INTRODUCED_61_,X_INTRODUCED_63_,X_INTRODUCED_67_,X_INTRODUCED_75_];
constraint int_lin_le(X_INTRODUCED_78_,[X_INTRODUCED_16_,X_INTRODUCED_23_],-9);
constraint int_lin_le(X_INTRODUCED_78_,[X_INTRODUCED_17_,X_INTRODUCED_19_],-7);
constraint int_lin_le(X_INTRODUCED_78_,[X_INTRODUCED_17_,X_INTRODUCED_21_],-7);
constraint int_lin_le(X_INTRODUCED_78_,[X_INTRODUCED_17_,X_INTRODUCED_22_],-7);
constraint int_lin_le(X_INTRODUCED_78_,[X_INTRODUCED_18_,X_INTRODUCED_28_],-1);
constraint int_lin_le(X_INTRODUCED_78_,[X_INTRODUCED_18_,X_INTRODUCED_34_],-1);
constraint int_lin_le(X_INTRODUCED_78_,[X_INTRODUCED_19_,X_INTRODUCED_20_],-7);
constraint int_lin_le(X_INTRODUCED_78_,[X_INTRODUCED_19_,X_INTRODUCED_29_],-7);
constraint int_lin_le(X_INTRODUCED_78_,[X_INTRODUCED_19_,X_INTRODUCED_30_],-7);
constraint int_lin_le(X_INTRODUCED_78_,[X_INTRODUCED_20_,X_INTRODUCED_24_],-2);
constraint int_lin_le(X_INTRODUCED_78_,[X_INTRODUCED_20_,X_INTRODUCED_25_],-2);
constraint int_lin_le(X_INTRODUCED_78_,[X_INTRODUCED_20_,X_INTRODUCED_26_],-2);
constraint int_lin_le(X_INTRODUCED_78_,[X_INTRODUCED_21_,X_INTRODUCED_67_],-8);
constraint int_lin_le(X_INTRODUCED_78_,[X_INTRODUCED_22_,X_INTRODUCED_66_],-4);
constraint int_lin_le(X_INTRODUCED_78_,[X_INTRODUCED_23_,X_INTRODUCED_27_],-5);
constraint int_lin_le(X_INTRODUCED_78_,[X_INTRODUCED_23_,X_INTRODUCED_33_],-5);
constraint int_lin_le(X_INTRODUCED_78_,[X_INTRODUCED_24_,X_INTRODUCED_36_],-4);
constraint int_lin_le(X_INTRODUCED_78_,[X_INTRODUCED_24_,X_INTRODUCED_38_],-4);
constraint int_lin_le(X_INTRODUCED_78_,[X_INTRODUCED_24_,X_INTRODUCED_44_],-4);
constraint int_lin_le(X_INTRODUCED_78_,[X_INTRODUCED_25_,X_INTRODUCED_43_],-1);
constraint int_lin_le(X_INTRODUCED_78_,[X_INTRODUCED_25_,X_INTRODUCED_47_],-1);
constraint int_lin_le(X_INTRODUCED_78_,[X_INTRODUCED_25_,X_INTRODUCED_52_],-1);
constraint int_lin_le(X_INTRODUCED_78_,[X_INTRODUCED_26_,X_INTRODUCED_70_],-5);
constraint int_lin_le(X_INTRODUCED_78_,[X_INTRODUCED_27_,X_INTRODUCED_31_],-3);
constraint int_lin_le(X_INTRODUCED_78_,[X_INTRODUCED_27_,X_INTRODUCED_41_],-3);
constraint int_lin_le(X_INTRODUCED_78_,[X_INTRODUCED_27_,X_INTRODUCED_53_],-3);
constraint int_lin_le(X_INTRODUCED_78_,[X_INTRODUCED_28_,X_INTRODUCED_46_],-5);
constraint int_lin_le(X_INTRODUCED_78_,[X_INTRODUCED_28_,X_INTRODUCED_48_],-5);
constraint int_lin_le(X_INTRODUCED_78_,[X_INTRODUCED_29_,X_INTRODUCED_32_],-1);
constraint int_lin_le(X_INTRODUCED_78_,[X_INTRODUCED_30_,X_INTRODUCED_35_],-3);
constraint int_lin_le(X_INTRODUCED_78_,[X_INTRODUCED_31_,X_INTRODUCED_48_],-9);
constraint int_lin_le(X_INTRODUCED_78_,[X_INTRODUCED_32_,X_INTRODUCED_72_],-9);
constraint int_lin_le(X_INTRODUCED_78_,[X_INTRODUCED_33_,X_INTRODUCED_40_],-5);
constraint int_lin_le(X_INTRODUCED_78_,[X_INTRODUCED_33_,X_INTRODUCED_74_],-5);
constraint int_lin_le(X_INTRODUCED_78_,[X_INTRODUCED_34_,X_INTRODUCED_42_],-6);
constraint int_lin_le(X_INTRODUCED_78_,[X_INTRODUCED_34_,X_INTRODUCED_49_],-6);
constraint int_lin_le(X_INTRODUCED_78_,[X_INTRODUCED_34_,X_INTRODUCED_71_],-6);
constraint int_lin_le(X_INTRODUCED_78_,[X_INTRODUCED_35_,X_INTRODUCED_68_],-9);
constraint int_lin_le(X_INTRODUCED_78_,[X_INTRODUCED_36_,X_INTRODUCED_37_],-3);
constraint int_lin_le(X_INTRODUCED_78_,[X_INTRODUCED_36_,X_INTRODUCED_45_],-3);
constraint int_lin_le(X_INTRODUCED_78_,[X_INTRODUCED_36_,X_INTRODUCED_50_],-3);
constraint int_lin_le(X_INTRODUCED_78_,[X_INTRODUCED_37_,X_INTRODUCED_57_],-5);
constraint int_lin_le(X_INTRODUCED_78_,[X_INTRODUCED_38_,X_INTRODUCED_39_],-10);
constraint int_lin_le(X_INTRODUCED_78_,[X_INTRODUCED_38_,X_INTRODUCED_51_],-10);
constraint int_lin_le(X_INTRODUCED_78_,[X_INTRODUCED_38_,X_INTRODUCED_54_],-10);
constraint int_lin_le(X_INTRODUCED_78_,[X_INTRODUCED_39_,X_INTRODUCED_71_],-2);
constraint int_lin_le(X_INTRODUCED_78_,[X_INTRODUCED_40_,X_INTRODUCED_45_],-7);
constraint int_lin_le(X_INTRODUCED_78_,[X_INTRODUCED_40_,X_INTRODUCED_47_],-7);
constraint int_lin_le(X_INTRODUCED_78_,[X_INTRODUCED_41_,X_INTRODUCED_60_],-1);
constraint int_lin_le(X_INTRODUCED_78_,[X_INTRODUCED_41_,X_INTRODUCED_61_],-1);
constraint int_lin_le(X_INTRODUCED_78_,[X_INTRODUCED_42_,X_INTRODUCED_66_],-4);
constraint int_lin_le(X_INTRODUCED_78_,[X_INTRODUCED_43_,X_INTRODUCED_65_],-6);
constraint int_lin_le(X_INTRODUCED_78_,[X_INTRODUCED_44_,X_INTRODUCED_67_],-10);
constraint int_lin_le(X_INTRODUCED_78_,[X_INTRODUCED_45_,X_INTRODUCED_51_],-8);
constraint int_lin_le(X_INTRODUCED_78_,[X_INTRODUCED_46_,X_INTRODUCED_64_],-8);
constraint int_lin_le(X_INTRODUCED_78_,[X_INTRODUCED_47_,X_INTRODUCED_51_],-2);
constraint int_lin_le(X_INTRODUCED_78_,[X_INTRODUCED_48_,X_INTRODUCED_56_],-3);
constraint int_lin_le(X_INTRODUCED_78_,[X_INTRODUCED_48_,X_INTRODUCED_67_],-3);
constraint int_lin_le(X_INTRODUCED_78_,[X_INTRODUCED_49_,X_INTRODUCED_55_],-7);
constraint int_lin_le(X_INTRODUCED_78_,[X_INTRODUCED_49_,X_INTRODUCED_75_],-7);
constraint int_lin_le(X_INTRODUCED_78_,[X_INTRODUCED_50_,X_INTRODUCED_53_],-5);
constraint int_lin_le(X_INTRODUCED_78_,[X_INTRODUCED_51_,X_INTRODUCED_72_],-6);
constraint int_lin_le(X_INTRODUCED_78_,[X_INTRODUCED_52_,X_INTRODUCED_53_],-8);
constraint int_lin_le(X_INTRODUCED_78_,[X_INTRODUCED_53_,X_INTRODUCED_69_],-9);
constraint int_lin_le(X_INTRODUCED_78_,[X_INTRODUCED_53_,X_INTRODUCED_73_],-9);
constraint int_lin_le(X_INTRODUCED_78_,[X_INTRODUCED_54_,X_INTRODUCED_58_],-8);
constraint int_lin_le(X_INTRODUCED_78_,[X_INTRODUCED_55_,X_INTRODUCED_74_],-1);
constraint int_lin_le(X_INTRODUCED_78_,[X_INTRODUCED_56_,X_INTRODUCED_74_],-6);
constraint int_lin_le(X_INTRODUCED_78_,[X_INTRODUCED_57_,X_INTRODUCED_59_],-1);
constraint int_lin_le(X_INTRODUCED_78_,[X_INTRODUCED_57_,X_INTRODUCED_62_],-1);
constraint int_lin_le(X_INTRODUCED_78_,[X_INTRODUCED_58_,X_INTRODUCED_59_],-10);
constraint int_lin_le(X_INTRODUCED_78_,[X_INTRODUCED_58_,X_INTRODUCED_66_],-10);
constraint int_lin_le(X_INTRODUCED_78_,[X_INTRODUCED_59_,X_INTRODUCED_60_],-6);
constraint int_lin_le(X_INTRODUCED_78_,[X_INTRODUCED_60_,X_INTRODUCED_63_],-5);
constraint int_lin_le(X_INTRODUCED_78_,[X_INTRODUCED_61_,X_INTRODUCED_65_],-6);
constraint int_lin_le(X_INTRODUCED_78_,[X_INTRODUCED_61_,X_INTRODUCED_68_],-6);
constraint int_lin_le(X_INTRODUCED_78_,[X_INTRODUCED_62_,X_INTRODUCED_71_],-6);
constraint int_lin_le(X_INTRODUCED_78_,[X_INTRODUCED_63_,X_INTRODUCED_73_],-8);
constraint int_lin_le(X_INTRODUCED_78_,[X_INTRODUCED_64_,X_INTRODUCED_65_],-10);
constraint int_lin_le(X_INTRODUCED_78_,[X_INTRODUCED_65_,X_INTRODUCED_69_],-2);
constraint int_lin_le(X_INTRODUCED_78_,[X_INTRODUCED_66_,X_INTRODUCED_70_],-4);
constraint int_lin_le(X_INTRODUCED_78_,[X_INTRODUCED_67_,X_INTRODUCED_75_],-5);
constraint int_lin_le(X_INTRODUCED_78_,[X_INTRODUCED_68_,X_INTRODUCED_69_],-7);
constraint int_lin_le(X_INTRODUCED_78_,[X_INTRODUCED_69_,X_INTRODUCED_70_],-4);
constraint int_lin_le(X_INTRODUCED_78_,[X_INTRODUCED_70_,X_INTRODUCED_75_],-5);
constraint int_lin_le(X_INTRODUCED_78_,[X_INTRODUCED_71_,X_INTRODUCED_72_],-6);
constraint int_lin_le(X_INTRODUCED_78_,[X_INTRODUCED_72_,X_INTRODUCED_73_],-4);
constraint bool_clause([X_INTRODUCED_135_,X_INTRODUCED_137_],[]);
constraint bool_clause([X_INTRODUCED_138_,X_INTRODUCED_139_],[]);
constraint minicpp_cumulative(X_INTRODUCED_142_,X_INTRODUCED_141_,X_INTRODUCED_140_,23);
constraint minicpp_cumulative(X_INTRODUCED_145_,X_INTRODUCED_144_,X_INTRODUCED_143_,36);
constraint minicpp_cumulative(X_INTRODUCED_148_,X_INTRODUCED_147_,X_INTRODUCED_146_,31);
constraint minicpp_cumulative(X_INTRODUCED_151_,X_INTRODUCED_150_,X_INTRODUCED_149_,16);
constraint int_lin_le_imp(X_INTRODUCED_78_,[X_INTRODUCED_55_,X_INTRODUCED_75_],-1,X_INTRODUCED_135_):: defines_var(X_INTRODUCED_135_);
constraint int_lin_le_imp(X_INTRODUCED_78_,[X_INTRODUCED_75_,X_INTRODUCED_55_],-8,X_INTRODUCED_137_):: defines_var(X_INTRODUCED_137_);
constraint int_lin_le_imp(X_INTRODUCED_78_,[X_INTRODUCED_58_,X_INTRODUCED_75_],-10,X_INTRODUCED_138_):: defines_var(X_INTRODUCED_138_);
constraint int_lin_le_imp(X_INTRODUCED_78_,[X_INTRODUCED_75_,X_INTRODUCED_58_],-8,X_INTRODUCED_139_):: defines_var(X_INTRODUCED_139_);
solve :: int_search(s,smallest,indomain_min,complete) satisfy;
